GLPK/f1_patrones.dat
/*hor := 144; npat := 4;*/

data;

set J := 1,2,3,4;

set H :=
1
2
3
4
5
6
7
8
9
10
11
12
13
14
15
16
17
18
19
20
21
22
23
24
25
26
27
28
29
30
31
32
33
34
35
36
37
38
39
40
41
42
43
44
45
46
47
48
49
50
51
52
53
54
55
56
57
58
59
60
61
62
63
64
65
66
67
68
69
70
71
72
73
74
75
76
77
78
79
80
81
82
83
84
85
86
87
88
89
90
91
92
93
94
95
96
97
98
99
100
101
102
103
104
105
106
107
108
109
110
111
112
113
114
115
116
117
118
119
120
121
122
123
124
125
126
127
128
129
130
131
132
133
134
135
136
137
138
139
140
141
142
143
144
;


param a default 0:=
1	1	1
1	2	1
1	3	1
1	4	1
1	5	1
1	6	1
1	7	1
1	8	1
1	9	1
1	10	1
1	11	1
1	12	1
1	13	1
1	14	1
1	15	1
1	16	1
1	17	1
1	18	1
1	19	1
1	20	1
1	21	1
1	22	1
1	23	1
1	24	1
1	25	1
1	26	1
1	27	1
1	28	1
1	29	1
1	30	1
1	31	1
1	32	1
1	33	1
1	34	1
1	35	1
1	36	1
1	37	1
1	38	1
1	39	1
1	40	1
1	41	1
1	42	1
1	43	1
1	44	1
1	45	1
1	46	1
1	47	1
1	48	1
2	47	1
2	48	1
2	49	1
2	50	1
2	51	1
2	52	1
2	53	1
2	54	1
2	55	1
2	56	1
2	57	1
2	58	1
2	59	1
2	60	1
2	61	1
2	62	1
2	63	1
2	64	1
2	65	1
2	66	1
2	67	1
2	68	1
2	69	1
2	70	1
2	71	1
2	72	1
2	73	1
2	74	1
2	75	1
2	76	1
2	77	1
2	78	1
2	79	1
2	80	1
2	81	1
2	82	1
2	83	1
2	84	1
2	85	1
2	86	1
2	87	1
2	88	1
2	89	1
2	90	1
2	91	1
2	92	1
2	93	1
2	94	1
3	93	1
3	94	1
3	95	1
3	96	1
3	97	1
3	98	1
3	99	1
3	100	1
3	101	1
3	102	1
3	103	1
3	104	1
3	105	1
3	106	1
3	107	1
3	108	1
3	109	1
3	110	1
3	111	1
3	112	1
3	113	1
3	114	1
3	115	1
3	116	1
3	117	1
3	118	1
3	119	1
3	120	1
3	121	1
3	122	1
3	123	1
3	124	1
3	125	1
3	126	1
3	127	1
3	128	1
3	129	1
3	130	1
3	131	1
3	132	1
3	133	1
3	134	1
3	135	1
3	136	1
3	137	1
3	138	1
3	139	1
3	140	1
4	144	1
4	143	1
4	142	1
4	141	1
4	140	1
4	139	1
4	138	1
4	137	1
4	136	1
4	135	1
4	134	1
4	133	1
4	132	1
4	131	1
4	130	1
4	129	1
4	128	1
4	127	1
4	126	1
4	125	1
4	124	1
4	123	1
4	122	1
4	121	1
4	120	1
4	119	1
4	118	1
4	117	1
4	116	1
4	115	1
4	114	1
4	113	1
4	112	1
4	111	1
4	110	1
4	109	1
4	108	1
4	107	1
4	106	1
4	105	1
4	104	1
4	103	1
4	102	1
4	101	1
4	100	1
4	99	1
4	98	1
4	97	1
;

param R :=
1	0
2	0
3	1
4	1
5	1
6	1
7	1
8	0
9	0
10	0
11	2
12	2
13	2
14	3
15	1
16	1
17	1
18	1
19	0
20	1
21	1
22	1
23	1
24	1
25	0
26	0
27	0
28	0
29	0
30	0
31	0
32	0
33	0
34	0
35	0
36	0
37	0
38	0
39	0
40	0
41	0
42	0
43	0
44	0
45	0
46	0
47	0
48	0
49	0
50	0
51	0
52	0
53	0
54	0
55	0
56	1
57	1
58	1
59	1
60	0
61	0
62	0
63	0
64	1
65	1
66	1
67	1
68	1
69	0
70	0
71	1
72	1
73	1
74	1
75	1
76	0
77	1
78	2
79	2
80	2
81	2
82	2
83	1
84	1
85	1
86	1
87	1
88	1
89	1
90	0
91	0
92	0
93	1
94	1
95	1
96	1
97	1
98	1
99	2
100	2
101	3
102	2
103	3
104	2
105	2
106	2
107	1
108	1
109	1
110	1
111	0
112	0
113	0
114	1
115	1
116	1
117	1
118	2
119	2
120	4
121	5
122	5
123	4
124	4
125	4
126	4
127	3
128	3
129	3
130	2
131	3
132	5
133	4
134	4
135	6
136	6
137	5
138	5
139	2
140	2
141	3
142	3
143	3
144	0
;

end;
