GLPK/f1_patrones.mps
* Problem:    f1_patrones
* Class:      LP
* Rows:       289
* Columns:    149
* Non-zeros:  629
* Format:     Free MPS
*
NAME f1_patrones
ROWS
 N obj
 E cover[1]
 E cover[2]
 E cover[3]
 E cover[4]
 E cover[5]
 E cover[6]
 E cover[7]
 E cover[8]
 E cover[9]
 E cover[10]
 E cover[11]
 E cover[12]
 E cover[13]
 E cover[14]
 E cover[15]
 E cover[16]
 E cover[17]
 E cover[18]
 E cover[19]
 E cover[20]
 E cover[21]
 E cover[22]
 E cover[23]
 E cover[24]
 E cover[25]
 E cover[26]
 E cover[27]
 E cover[28]
 E cover[29]
 E cover[30]
 E cover[31]
 E cover[32]
 E cover[33]
 E cover[34]
 E cover[35]
 E cover[36]
 E cover[37]
 E cover[38]
 E cover[39]
 E cover[40]
 E cover[41]
 E cover[42]
 E cover[43]
 E cover[44]
 E cover[45]
 E cover[46]
 E cover[47]
 E cover[48]
 E cover[49]
 E cover[50]
 E cover[51]
 E cover[52]
 E cover[53]
 E cover[54]
 E cover[55]
 E cover[56]
 E cover[57]
 E cover[58]
 E cover[59]
 E cover[60]
 E cover[61]
 E cover[62]
 E cover[63]
 E cover[64]
 E cover[65]
 E cover[66]
 E cover[67]
 E cover[68]
 E cover[69]
 E cover[70]
 E cover[71]
 E cover[72]
 E cover[73]
 E cover[74]
 E cover[75]
 E cover[76]
 E cover[77]
 E cover[78]
 E cover[79]
 E cover[80]
 E cover[81]
 E cover[82]
 E cover[83]
 E cover[84]
 E cover[85]
 E cover[86]
 E cover[87]
 E cover[88]
 E cover[89]
 E cover[90]
 E cover[91]
 E cover[92]
 E cover[93]
 E cover[94]
 E cover[95]
 E cover[96]
 E cover[97]
 E cover[98]
 E cover[99]
 E cover[100]
 E cover[101]
 E cover[102]
 E cover[103]
 E cover[104]
 E cover[105]
 E cover[106]
 E cover[107]
 E cover[108]
 E cover[109]
 E cover[110]
 E cover[111]
 E cover[112]
 E cover[113]
 E cover[114]
 E cover[115]
 E cover[116]
 E cover[117]
 E cover[118]
 E cover[119]
 E cover[120]
 E cover[121]
 E cover[122]
 E cover[123]
 E cover[124]
 E cover[125]
 E cover[126]
 E cover[127]
 E cover[128]
 E cover[129]
 E cover[130]
 E cover[131]
 E cover[132]
 E cover[133]
 E cover[134]
 E cover[135]
 E cover[136]
 E cover[137]
 E cover[138]
 E cover[139]
 E cover[140]
 E cover[141]
 E cover[142]
 E cover[143]
 E cover[144]
 G my[1]
 G my[2]
 G my[3]
 G my[4]
 G my[5]
 G my[6]
 G my[7]
 G my[8]
 G my[9]
 G my[10]
 G my[11]
 G my[12]
 G my[13]
 G my[14]
 G my[15]
 G my[16]
 G my[17]
 G my[18]
 G my[19]
 G my[20]
 G my[21]
 G my[22]
 G my[23]
 G my[24]
 G my[25]
 G my[26]
 G my[27]
 G my[28]
 G my[29]
 G my[30]
 G my[31]
 G my[32]
 G my[33]
 G my[34]
 G my[35]
 G my[36]
 G my[37]
 G my[38]
 G my[39]
 G my[40]
 G my[41]
 G my[42]
 G my[43]
 G my[44]
 G my[45]
 G my[46]
 G my[47]
 G my[48]
 G my[49]
 G my[50]
 G my[51]
 G my[52]
 G my[53]
 G my[54]
 G my[55]
 G my[56]
 G my[57]
 G my[58]
 G my[59]
 G my[60]
 G my[61]
 G my[62]
 G my[63]
 G my[64]
 G my[65]
 G my[66]
 G my[67]
 G my[68]
 G my[69]
 G my[70]
 G my[71]
 G my[72]
 G my[73]
 G my[74]
 G my[75]
 G my[76]
 G my[77]
 G my[78]
 G my[79]
 G my[80]
 G my[81]
 G my[82]
 G my[83]
 G my[84]
 G my[85]
 G my[86]
 G my[87]
 G my[88]
 G my[89]
 G my[90]
 G my[91]
 G my[92]
 G my[93]
 G my[94]
 G my[95]
 G my[96]
 G my[97]
 G my[98]
 G my[99]
 G my[100]
 G my[101]
 G my[102]
 G my[103]
 G my[104]
 G my[105]
 G my[106]
 G my[107]
 G my[108]
 G my[109]
 G my[110]
 G my[111]
 G my[112]
 G my[113]
 G my[114]
 G my[115]
 G my[116]
 G my[117]
 G my[118]
 G my[119]
 G my[120]
 G my[121]
 G my[122]
 G my[123]
 G my[124]
 G my[125]
 G my[126]
 G my[127]
 G my[128]
 G my[129]
 G my[130]
 G my[131]
 G my[132]
 G my[133]
 G my[134]
 G my[135]
 G my[136]
 G my[137]
 G my[138]
 G my[139]
 G my[140]
 G my[141]
 G my[142]
 G my[143]
 G my[144]
COLUMNS
 x[1] obj 1 cover[1] 1
 x[1] cover[2] 1 cover[3] 1
 x[1] cover[4] 1 cover[5] 1
 x[1] cover[6] 1 cover[7] 1
 x[1] cover[8] 1 cover[9] 1
 x[1] cover[10] 1 cover[11] 1
 x[1] cover[12] 1 cover[13] 1
 x[1] cover[14] 1 cover[15] 1
 x[1] cover[16] 1 cover[17] 1
 x[1] cover[18] 1 cover[19] 1
 x[1] cover[20] 1 cover[21] 1
 x[1] cover[22] 1 cover[23] 1
 x[1] cover[24] 1 cover[25] 1
 x[1] cover[26] 1 cover[27] 1
 x[1] cover[28] 1 cover[29] 1
 x[1] cover[30] 1 cover[31] 1
 x[1] cover[32] 1 cover[33] 1
 x[1] cover[34] 1 cover[35] 1
 x[1] cover[36] 1 cover[37] 1
 x[1] cover[38] 1 cover[39] 1
 x[1] cover[40] 1 cover[41] 1
 x[1] cover[42] 1 cover[43] 1
 x[1] cover[44] 1 cover[45] 1
 x[1] cover[46] 1 cover[47] 1
 x[1] cover[48] 1
 x[2] obj 1 cover[47] 1
 x[2] cover[48] 1 cover[49] 1
 x[2] cover[50] 1 cover[51] 1
 x[2] cover[52] 1 cover[53] 1
 x[2] cover[54] 1 cover[55] 1
 x[2] cover[56] 1 cover[57] 1
 x[2] cover[58] 1 cover[59] 1
 x[2] cover[60] 1 cover[61] 1
 x[2] cover[62] 1 cover[63] 1
 x[2] cover[64] 1 cover[65] 1
 x[2] cover[66] 1 cover[67] 1
 x[2] cover[68] 1 cover[69] 1
 x[2] cover[70] 1 cover[71] 1
 x[2] cover[72] 1 cover[73] 1
 x[2] cover[74] 1 cover[75] 1
 x[2] cover[76] 1 cover[77] 1
 x[2] cover[78] 1 cover[79] 1
 x[2] cover[80] 1 cover[81] 1
 x[2] cover[82] 1 cover[83] 1
 x[2] cover[84] 1 cover[85] 1
 x[2] cover[86] 1 cover[87] 1
 x[2] cover[88] 1 cover[89] 1
 x[2] cover[90] 1 cover[91] 1
 x[2] cover[92] 1 cover[93] 1
 x[2] cover[94] 1
 x[3] obj 1 cover[93] 1
 x[3] cover[94] 1 cover[95] 1
 x[3] cover[96] 1 cover[97] 1
 x[3] cover[98] 1 cover[99] 1
 x[3] cover[100] 1 cover[101] 1
 x[3] cover[102] 1 cover[103] 1
 x[3] cover[104] 1 cover[105] 1
 x[3] cover[106] 1 cover[107] 1
 x[3] cover[108] 1 cover[109] 1
 x[3] cover[110] 1 cover[111] 1
 x[3] cover[112] 1 cover[113] 1
 x[3] cover[114] 1 cover[115] 1
 x[3] cover[116] 1 cover[117] 1
 x[3] cover[118] 1 cover[119] 1
 x[3] cover[120] 1 cover[121] 1
 x[3] cover[122] 1 cover[123] 1
 x[3] cover[124] 1 cover[125] 1
 x[3] cover[126] 1 cover[127] 1
 x[3] cover[128] 1 cover[129] 1
 x[3] cover[130] 1 cover[131] 1
 x[3] cover[132] 1 cover[133] 1
 x[3] cover[134] 1 cover[135] 1
 x[3] cover[136] 1 cover[137] 1
 x[3] cover[138] 1 cover[139] 1
 x[3] cover[140] 1
 x[4] obj 1 cover[97] 1
 x[4] cover[98] 1 cover[99] 1
 x[4] cover[100] 1 cover[101] 1
 x[4] cover[102] 1 cover[103] 1
 x[4] cover[104] 1 cover[105] 1
 x[4] cover[106] 1 cover[107] 1
 x[4] cover[108] 1 cover[109] 1
 x[4] cover[110] 1 cover[111] 1
 x[4] cover[112] 1 cover[113] 1
 x[4] cover[114] 1 cover[115] 1
 x[4] cover[116] 1 cover[117] 1
 x[4] cover[118] 1 cover[119] 1
 x[4] cover[120] 1 cover[121] 1
 x[4] cover[122] 1 cover[123] 1
 x[4] cover[124] 1 cover[125] 1
 x[4] cover[126] 1 cover[127] 1
 x[4] cover[128] 1 cover[129] 1
 x[4] cover[130] 1 cover[131] 1
 x[4] cover[132] 1 cover[133] 1
 x[4] cover[134] 1 cover[135] 1
 x[4] cover[136] 1 cover[137] 1
 x[4] cover[138] 1 cover[139] 1
 x[4] cover[140] 1 cover[141] 1
 x[4] cover[142] 1 cover[143] 1
 x[4] cover[144] 1
 y[1] cover[1] -1 my[1] -1
 y[2] cover[2] -1 my[2] -1
 y[3] cover[3] -1 my[3] -1
 y[4] cover[4] -1 my[4] -1
 y[5] cover[5] -1 my[5] -1
 y[6] cover[6] -1 my[6] -1
 y[7] cover[7] -1 my[7] -1
 y[8] cover[8] -1 my[8] -1
 y[9] cover[9] -1 my[9] -1
 y[10] cover[10] -1 my[10] -1
 y[11] cover[11] -1 my[11] -1
 y[12] cover[12] -1 my[12] -1
 y[13] cover[13] -1 my[13] -1
 y[14] cover[14] -1 my[14] -1
 y[15] cover[15] -1 my[15] -1
 y[16] cover[16] -1 my[16] -1
 y[17] cover[17] -1 my[17] -1
 y[18] cover[18] -1 my[18] -1
 y[19] cover[19] -1 my[19] -1
 y[20] cover[20] -1 my[20] -1
 y[21] cover[21] -1 my[21] -1
 y[22] cover[22] -1 my[22] -1
 y[23] cover[23] -1 my[23] -1
 y[24] cover[24] -1 my[24] -1
 y[25] cover[25] -1 my[25] -1
 y[26] cover[26] -1 my[26] -1
 y[27] cover[27] -1 my[27] -1
 y[28] cover[28] -1 my[28] -1
 y[29] cover[29] -1 my[29] -1
 y[30] cover[30] -1 my[30] -1
 y[31] cover[31] -1 my[31] -1
 y[32] cover[32] -1 my[32] -1
 y[33] cover[33] -1 my[33] -1
 y[34] cover[34] -1 my[34] -1
 y[35] cover[35] -1 my[35] -1
 y[36] cover[36] -1 my[36] -1
 y[37] cover[37] -1 my[37] -1
 y[38] cover[38] -1 my[38] -1
 y[39] cover[39] -1 my[39] -1
 y[40] cover[40] -1 my[40] -1
 y[41] cover[41] -1 my[41] -1
 y[42] cover[42] -1 my[42] -1
 y[43] cover[43] -1 my[43] -1
 y[44] cover[44] -1 my[44] -1
 y[45] cover[45] -1 my[45] -1
 y[46] cover[46] -1 my[46] -1
 y[47] cover[47] -1 my[47] -1
 y[48] cover[48] -1 my[48] -1
 y[49] cover[49] -1 my[49] -1
 y[50] cover[50] -1 my[50] -1
 y[51] cover[51] -1 my[51] -1
 y[52] cover[52] -1 my[52] -1
 y[53] cover[53] -1 my[53] -1
 y[54] cover[54] -1 my[54] -1
 y[55] cover[55] -1 my[55] -1
 y[56] cover[56] -1 my[56] -1
 y[57] cover[57] -1 my[57] -1
 y[58] cover[58] -1 my[58] -1
 y[59] cover[59] -1 my[59] -1
 y[60] cover[60] -1 my[60] -1
 y[61] cover[61] -1 my[61] -1
 y[62] cover[62] -1 my[62] -1
 y[63] cover[63] -1 my[63] -1
 y[64] cover[64] -1 my[64] -1
 y[65] cover[65] -1 my[65] -1
 y[66] cover[66] -1 my[66] -1
 y[67] cover[67] -1 my[67] -1
 y[68] cover[68] -1 my[68] -1
 y[69] cover[69] -1 my[69] -1
 y[70] cover[70] -1 my[70] -1
 y[71] cover[71] -1 my[71] -1
 y[72] cover[72] -1 my[72] -1
 y[73] cover[73] -1 my[73] -1
 y[74] cover[74] -1 my[74] -1
 y[75] cover[75] -1 my[75] -1
 y[76] cover[76] -1 my[76] -1
 y[77] cover[77] -1 my[77] -1
 y[78] cover[78] -1 my[78] -1
 y[79] cover[79] -1 my[79] -1
 y[80] cover[80] -1 my[80] -1
 y[81] cover[81] -1 my[81] -1
 y[82] cover[82] -1 my[82] -1
 y[83] cover[83] -1 my[83] -1
 y[84] cover[84] -1 my[84] -1
 y[85] cover[85] -1 my[85] -1
 y[86] cover[86] -1 my[86] -1
 y[87] cover[87] -1 my[87] -1
 y[88] cover[88] -1 my[88] -1
 y[89] cover[89] -1 my[89] -1
 y[90] cover[90] -1 my[90] -1
 y[91] cover[91] -1 my[91] -1
 y[92] cover[92] -1 my[92] -1
 y[93] cover[93] -1 my[93] -1
 y[94] cover[94] -1 my[94] -1
 y[95] cover[95] -1 my[95] -1
 y[96] cover[96] -1 my[96] -1
 y[97] cover[97] -1 my[97] -1
 y[98] cover[98] -1 my[98] -1
 y[99] cover[99] -1 my[99] -1
 y[100] cover[100] -1 my[100] -1
 y[101] cover[101] -1 my[101] -1
 y[102] cover[102] -1 my[102] -1
 y[103] cover[103] -1 my[103] -1
 y[104] cover[104] -1 my[104] -1
 y[105] cover[105] -1 my[105] -1
 y[106] cover[106] -1 my[106] -1
 y[107] cover[107] -1 my[107] -1
 y[108] cover[108] -1 my[108] -1
 y[109] cover[109] -1 my[109] -1
 y[110] cover[110] -1 my[110] -1
 y[111] cover[111] -1 my[111] -1
 y[112] cover[112] -1 my[112] -1
 y[113] cover[113] -1 my[113] -1
 y[114] cover[114] -1 my[114] -1
 y[115] cover[115] -1 my[115] -1
 y[116] cover[116] -1 my[116] -1
 y[117] cover[117] -1 my[117] -1
 y[118] cover[118] -1 my[118] -1
 y[119] cover[119] -1 my[119] -1
 y[120] cover[120] -1 my[120] -1
 y[121] cover[121] -1 my[121] -1
 y[122] cover[122] -1 my[122] -1
 y[123] cover[123] -1 my[123] -1
 y[124] cover[124] -1 my[124] -1
 y[125] cover[125] -1 my[125] -1
 y[126] cover[126] -1 my[126] -1
 y[127] cover[127] -1 my[127] -1
 y[128] cover[128] -1 my[128] -1
 y[129] cover[129] -1 my[129] -1
 y[130] cover[130] -1 my[130] -1
 y[131] cover[131] -1 my[131] -1
 y[132] cover[132] -1 my[132] -1
 y[133] cover[133] -1 my[133] -1
 y[134] cover[134] -1 my[134] -1
 y[135] cover[135] -1 my[135] -1
 y[136] cover[136] -1 my[136] -1
 y[137] cover[137] -1 my[137] -1
 y[138] cover[138] -1 my[138] -1
 y[139] cover[139] -1 my[139] -1
 y[140] cover[140] -1 my[140] -1
 y[141] cover[141] -1 my[141] -1
 y[142] cover[142] -1 my[142] -1
 y[143] cover[143] -1 my[143] -1
 y[144] cover[144] -1 my[144] -1
 z obj 0.01 my[1] 1
 z my[2] 1 my[3] 1
 z my[4] 1 my[5] 1
 z my[6] 1 my[7] 1
 z my[8] 1 my[9] 1
 z my[10] 1 my[11] 1
 z my[12] 1 my[13] 1
 z my[14] 1 my[15] 1
 z my[16] 1 my[17] 1
 z my[18] 1 my[19] 1
 z my[20] 1 my[21] 1
 z my[22] 1 my[23] 1
 z my[24] 1 my[25] 1
 z my[26] 1 my[27] 1
 z my[28] 1 my[29] 1
 z my[30] 1 my[31] 1
 z my[32] 1 my[33] 1
 z my[34] 1 my[35] 1
 z my[36] 1 my[37] 1
 z my[38] 1 my[39] 1
 z my[40] 1 my[41] 1
 z my[42] 1 my[43] 1
 z my[44] 1 my[45] 1
 z my[46] 1 my[47] 1
 z my[48] 1 my[49] 1
 z my[50] 1 my[51] 1
 z my[52] 1 my[53] 1
 z my[54] 1 my[55] 1
 z my[56] 1 my[57] 1
 z my[58] 1 my[59] 1
 z my[60] 1 my[61] 1
 z my[62] 1 my[63] 1
 z my[64] 1 my[65] 1
 z my[66] 1 my[67] 1
 z my[68] 1 my[69] 1
 z my[70] 1 my[71] 1
 z my[72] 1 my[73] 1
 z my[74] 1 my[75] 1
 z my[76] 1 my[77] 1
 z my[78] 1 my[79] 1
 z my[80] 1 my[81] 1
 z my[82] 1 my[83] 1
 z my[84] 1 my[85] 1
 z my[86] 1 my[87] 1
 z my[88] 1 my[89] 1
 z my[90] 1 my[91] 1
 z my[92] 1 my[93] 1
 z my[94] 1 my[95] 1
 z my[96] 1 my[97] 1
 z my[98] 1 my[99] 1
 z my[100] 1 my[101] 1
 z my[102] 1 my[103] 1
 z my[104] 1 my[105] 1
 z my[106] 1 my[107] 1
 z my[108] 1 my[109] 1
 z my[110] 1 my[111] 1
 z my[112] 1 my[113] 1
 z my[114] 1 my[115] 1
 z my[116] 1 my[117] 1
 z my[118] 1 my[119] 1
 z my[120] 1 my[121] 1
 z my[122] 1 my[123] 1
 z my[124] 1 my[125] 1
 z my[126] 1 my[127] 1
 z my[128] 1 my[129] 1
 z my[130] 1 my[131] 1
 z my[132] 1 my[133] 1
 z my[134] 1 my[135] 1
 z my[136] 1 my[137] 1
 z my[138] 1 my[139] 1
 z my[140] 1 my[141] 1
 z my[142] 1 my[143] 1
 z my[144] 1
RHS
 RHS1 cover[3] 1 cover[4] 1
 RHS1 cover[5] 1 cover[6] 1
 RHS1 cover[7] 1 cover[11] 2
 RHS1 cover[12] 2 cover[13] 2
 RHS1 cover[14] 3 cover[15] 1
 RHS1 cover[16] 1 cover[17] 1
 RHS1 cover[18] 1 cover[20] 1
 RHS1 cover[21] 1 cover[22] 1
 RHS1 cover[23] 1 cover[24] 1
 RHS1 cover[56] 1 cover[57] 1
 RHS1 cover[58] 1 cover[59] 1
 RHS1 cover[64] 1 cover[65] 1
 RHS1 cover[66] 1 cover[67] 1
 RHS1 cover[68] 1 cover[71] 1
 RHS1 cover[72] 1 cover[73] 1
 RHS1 cover[74] 1 cover[75] 1
 RHS1 cover[77] 1 cover[78] 2
 RHS1 cover[79] 2 cover[80] 2
 RHS1 cover[81] 2 cover[82] 2
 RHS1 cover[83] 1 cover[84] 1
 RHS1 cover[85] 1 cover[86] 1
 RHS1 cover[87] 1 cover[88] 1
 RHS1 cover[89] 1 cover[93] 1
 RHS1 cover[94] 1 cover[95] 1
 RHS1 cover[96] 1 cover[97] 1
 RHS1 cover[98] 1 cover[99] 2
 RHS1 cover[100] 2 cover[101] 3
 RHS1 cover[102] 2 cover[103] 3
 RHS1 cover[104] 2 cover[105] 2
 RHS1 cover[106] 2 cover[107] 1
 RHS1 cover[108] 1 cover[109] 1
 RHS1 cover[110] 1 cover[114] 1
 RHS1 cover[115] 1 cover[116] 1
 RHS1 cover[117] 1 cover[118] 2
 RHS1 cover[119] 2 cover[120] 4
 RHS1 cover[121] 5 cover[122] 5
 RHS1 cover[123] 4 cover[124] 4
 RHS1 cover[125] 4 cover[126] 4
 RHS1 cover[127] 3 cover[128] 3
 RHS1 cover[129] 3 cover[130] 2
 RHS1 cover[131] 3 cover[132] 5
 RHS1 cover[133] 4 cover[134] 1000
 RHS1 cover[135] 6 cover[136] 6
 RHS1 cover[137] 5 cover[138] 5
 RHS1 cover[139] 2 cover[140] 2
 RHS1 cover[141] 3 cover[142] 3
 RHS1 cover[143] 3
ENDATA
